(set-option :incremental false)
(set-logic ALL)
(declare-const BAV1 Bool)
(declare-const GEN6 Int)
(declare-const GEN5 Int)
(declare-const GEN4 Int)
(declare-const GEN3 Int)
(declare-const GEN2 Int)
(declare-const GEN1 Int)
(declare-fun x () (_ BitVec 32))
(assert (= BAV1 (= ((_ extract 7 2) ((_ extract 31 0) x)) ((_ extract 7 2) x))))
(check-sat-assuming ((not (= ((_ extract 7 2) ((_ extract 31 0) x)) ((_ extract 7 2) x)))))
(get-model)